558964
558964
558964
558964
558964
558964
553554
553554
553554
553554
553554
553554
553554
546180
546180
546180
546180
540293
540293
540293
540293
540293
540293
540293
537426
537426
537426
537426
531428
527749
527749
522062
522062
522062
522062
522062
522062
518717
518717
518717
518717
518717
512810
512810
512810
512810
512810
512810
512810
509989
509989
509989
507310
507310
505536
505536
505536
505536
505536
504984
504984
491781
491781
490761
490761
490761
490761
490761
490761
490761
490761
490761
474133
474133
474133
474133
474133
474133
474133
474133
474133
474133
471277
467253
467253
467253
465409
465409
465409
465409
465409
465409
465409
465409
465409
465409
464847
462560
462560
462560
